 vasp.6.3.2 27Jun22 (build Sep 08 2023 16:25:06) complex

 executed on             LinuxIFC date 2025.03.20  20:03:18

 INCAR:
   ISTART = 1            (Read existing wavefunction, if there)
   ISPIN = 1            (Non-Spin polarised DFT)
   ICHARG = 2         (Non-self-consistent: GGA/LDA band structures)
   LREAL = .FALSE.       (Projection operators: automatic)
   ENCUT = 400        (Cut-off energy for plane wave basis set, in eV)
   LWAVE = .F.        (Write WAVECAR or not)
   LCHARG = .T.        (Write CHGCAR or not)
   ADDGRID = .TRUE.        (Increase grid, helps GGA convergence)
   ALGO = F
   ISMEAR = 0            (Gaussian smearing, metals:1)
   SIGMA = 0.05         (Smearing value in eV, metals:0.2)
   NELM = 150           (Max electronic SCF steps)
   NELMIN = 6            (Min electronic SCF steps)
   EDIFF = 1E-05        (SCF energy convergence, in eV)
   NSW = 300          (Max ionic steps)
   IBRION = 2            (Algorithm: 0-MD, 1-Quasi-New, 2-CG)
   ISIF = 2            (Stress/relaxation: 2-Ions, 3-Shape/Ions/V, 4-Shape/Ions)
   EDIFFG = -0.05        (Ionic convergence, eV/AA)
   ISYM = 0            (Symmetry: 0\=none, 2\=GGA, 3\=hybrids)

 POTCAR:    PAW_PBE C 08Apr2002
 POTCAR:    PAW_PBE N 08Apr2002
 POTCAR:    PAW_PBE O 08Apr2002
 POTCAR:    PAW_PBE K_sv 06Sep2000
|           W    W    AA    RRRRR   N    N  II  N    N   GGGG   !!!           |
|           W    W   A  A   R    R  NN   N  II  NN   N  G    G  !!!           |
|           W    W  A    A  R    R  N N  N  II  N N  N  G       !!!           |
|           W WW W  AAAAAA  RRRRR   N  N N  II  N  N N  G  GGG   !            |
|           WW  WW  A    A  R   R   N   NN  II  N   NN  G    G                |
|           W    W  A    A  R    R  N    N  II  N    N   GGGG   !!!           |
|     For optimal performance we recommend to set                             |
|       NCORE = 2 up to number-of-cores-per-socket                            |
|     This setting can greatly improve the performance of VASP for DFT.       |
|     The default, NCORE=1 might be grossly inefficient on modern             |
|     multi-core architectures or massively parallel machines. Do your        |
|     Unfortunately you need to use the default for GW and RPA                |
|     calculations (for HF NCORE is supported but not extensively tested      |
|     yet).                                                                   |

 POTCAR:    PAW_PBE C 08Apr2002
   VRHFIN =C: s2p2

   TITEL  = PAW_PBE C 08Apr2002
   POMASS =   12.011; ZVAL   =    4.000    mass and valenz
   ENMAX  =  400.000; ENMIN  =  300.000 eV

 POTCAR:    PAW_PBE N 08Apr2002
   VRHFIN =N: s2p3

[...]

 POTCAR:    PAW_PBE O 08Apr2002
   VRHFIN =O: s2p4

   TITEL  = PAW_PBE O 08Apr2002
   POMASS =   16.000; ZVAL   =    6.000    mass and valenz
   ENMAX  =  400.000; ENMIN  =  300.000 eV

 POTCAR:    PAW_PBE K_sv 06Sep2000
   VRHFIN =K:  3s3p4s

   TITEL  = PAW_PBE K_sv 06Sep2000
   POMASS =   39.098; ZVAL   =    9.000    mass and valenz
   ENMAX  =  259.264; ENMIN  =  194.448 eV

  PAW_PBE C 08Apr2002                   :
  PAW_PBE N 08Apr2002                   :
  PAW_PBE O 08Apr2002                   :
  PAW_PBE K_sv 06Sep2000                :

 POSCAR: CONTCAR\(2)
  positions in direct lattice
  velocities in cartesian coordinates
 exchange correlation table for  LEXCH =        8
   RHO(1)=    0.500       N(1)  =     2000
   RHO(2)=  100.500       N(2)  =     4000

 VTST: version 4.1, (05/19/21)

 CHAIN: initializing optimizer

 OPT: Using VASP Conjugate-Gradient optimizer
 CHAIN: Read ICHAIN            0

 POSCAR: CONTCAR\(2)
  positions in direct lattice
  velocities in cartesian coordinates

 ion  position               nearest neighbor table
   1  0.001  0.000  0.168-   4 1.42 116 1.42 140 1.43
   2  0.000  0.001  0.024- 141 1.42  29 1.42   5 1.43
   3  0.004  0.010  0.331-  30 1.42   6 1.42 142 1.43
   4  0.068  0.134  0.168-   1 1.42  31 1.42  37 1.43
   5  0.134  0.067  0.024-  38 1.42   8 1.42   2 1.43
   6  0.136  0.076  0.330-   3 1.42   9 1.43  39 1.44
   7  0.201  0.000  0.168-  10 1.42 122 1.42 116 1.43
   8  0.200  0.001  0.024- 117 1.42   5 1.42  11 1.43
   9  0.199  0.005  0.334- 118 1.40   6 1.43  12 1.44
  10  0.268  0.134  0.168-   7 1.42  37 1.42  42 1.43
  11  0.334  0.067  0.024-  43 1.42  14 1.42   8 1.43
  12  0.333  0.068  0.331-  15 1.39   9 1.44  44 1.46
  13  0.401  0.000  0.168-  16 1.42 128 1.42 122 1.43
  14  0.400  0.001  0.024- 123 1.42  11 1.42  17 1.43
  15  0.396  0.001  0.333-  12 1.39  18 1.46 124 1.48
  16  0.468  0.134  0.168-  13 1.42  42 1.42  48 1.43
  17  0.534  0.067  0.024-  49 1.42  20 1.42  14 1.43
  18  0.532  0.066  0.336-  15 1.46  50 1.46  21 1.48 149 1.53
  19  0.601  0.000  0.168-  22 1.42 134 1.42 128 1.43
  20  0.600  0.001  0.024- 129 1.42  17 1.42  23 1.43
  21  0.600  0.996  0.329- 130 1.40  24 1.42  18 1.48
  22  0.668  0.134  0.167-  19 1.42  48 1.42  54 1.43
  23  0.734  0.067  0.024-  55 1.42  26 1.42  20 1.43
  24  0.733  0.067  0.328-  27 1.41  21 1.42  56 1.46
  25  0.801  0.000  0.168-  28 1.42 140 1.42 134 1.43
  26  0.800  0.001  0.024- 135 1.42  23 1.42  29 1.43
  27  0.804  0.007  0.332-  24 1.41 136 1.42  30 1.46
  28  0.867  0.134  0.168-  25 1.42  54 1.42  31 1.43
  29  0.934  0.067  0.024-  32 1.42   2 1.42  26 1.43
  30  0.940  0.079  0.330-   3 1.42  33 1.44  27 1.46
  31  0.001  0.200  0.168-  34 1.42   4 1.42  28 1.43
  32  0.000  0.201  0.024-  29 1.42  58 1.42  35 1.43
  33  0.010  0.213  0.332-  30 1.44  59 1.44  36 1.47
  34  0.068  0.334  0.168-  31 1.42  60 1.42  66 1.43
  35  0.134  0.267  0.024-  67 1.42  38 1.42  32 1.43
  36  0.148  0.284  0.331-  39 1.44  33 1.47  68 1.51
  37  0.201  0.200  0.168-  40 1.42  10 1.42   4 1.43
  38  0.200  0.201  0.024-   5 1.42  35 1.42  41 1.43
  39  0.208  0.210  0.329- 145 1.37  36 1.44   6 1.44
  40  0.268  0.334  0.168-  37 1.42  66 1.42  71 1.43
  41  0.334  0.267  0.024-  72 1.42  43 1.42  38 1.43
  42  0.401  0.200  0.168-  45 1.42  16 1.42  10 1.43
  43  0.400  0.201  0.024-  11 1.42  41 1.42  46 1.43
  44  0.395  0.204  0.329- 145 1.32  47 1.46  12 1.46
  45  0.468  0.334  0.168-  42 1.42  71 1.42  75 1.43
  46  0.534  0.267  0.024-  76 1.42  49 1.42  43 1.43
  47  0.531  0.277  0.329-  77 1.34  44 1.46  50 1.51
  48  0.601  0.200  0.168-  51 1.42  22 1.42  16 1.43
  49  0.600  0.201  0.024-  17 1.42  46 1.42  52 1.43
  50  0.597  0.204  0.339- 149 1.44  18 1.46  53 1.48  47 1.51
  51  0.668  0.334  0.168-  48 1.42  75 1.42  81 1.43
  52  0.734  0.267  0.024-  82 1.42  55 1.42  49 1.43
  53  0.732  0.275  0.328- 151 1.43  50 1.48  83 1.48  56 1.50
  54  0.801  0.200  0.167-  57 1.42  28 1.42  22 1.43
  55  0.800  0.201  0.024-  23 1.42  52 1.42  58 1.43
  56  0.801  0.204  0.323-  24 1.46  59 1.47  53 1.50 151 1.51
  57  0.868  0.334  0.167-  54 1.42  81 1.42  60 1.43
  58  0.934  0.267  0.024-  61 1.42  32 1.42  55 1.43
  59  0.936  0.273  0.333-  62 1.38  33 1.44  56 1.47
  60  0.001  0.400  0.168-  63 1.42  34 1.42  57 1.43
[...]
 139  0.803  0.807  0.338- 144 1.36 136 1.42 142 1.43
 140  0.867  0.934  0.168- 137 1.42  25 1.42   1 1.43
 141  0.934  0.867  0.023-   2 1.42 114 1.42 138 1.43
 142  0.936  0.876  0.335- 115 1.41 139 1.43   3 1.43
 143  0.323  0.525  0.327-  68 1.33  98 1.53 153 2.75
 144  0.737  0.679  0.339- 109 1.33 139 1.36
 145  0.336  0.269  0.330-  44 1.32  39 1.37
 146  0.279  0.846  0.394- 124 1.45 121 1.48
 147  0.744  0.431  0.390-  83 1.44  80 1.47
 148  0.555  0.714  0.378- 133 1.26 153 2.43
 149  0.568  0.137  0.384-  50 1.44  18 1.53
 150  0.168  0.530  0.399-  95 1.45  65 1.47
 151  0.768  0.260  0.281-  53 1.43  56 1.51
 152  0.337  0.713  0.289-  98 1.42 127 1.48
 153  0.479  0.492  0.388- 148 2.43 143 2.75  77 2.79

IMPORTANT INFORMATION: All symmetrisations will be switched off!
NOSYMM: (Re-)initialisation of all symmetry stuff for point group C_1.

                                     Primitive cell

  volume of cell :    3660.8870

  direct lattice vectors                    reciprocal lattice vectors
    12.360523135 -0.006028114  0.000000000     0.080925513  0.046727240  0.000000000
    -6.152664277 10.655615716  0.000000000     0.000045781  0.093873663  0.000000000
     0.000000000  0.000000000 27.803100586     0.000000000  0.000000000  0.035967212

  length of vectors
    12.360524605 12.304366054 27.803100586     0.093447170  0.093873674  0.035967212

  position of ions in fractional coordinates (direct lattice)
     0.000710720  0.000286043  0.168240673
     0.000310834  0.000915039  0.023543656
     0.003847023  0.009858197  0.331484634
     0.067511527  0.133765971  0.168186634
     0.133552250  0.067468872  0.023594952
     0.136406882  0.075669669  0.330474150
     0.200762457  0.000297191  0.168214197
     0.200321501  0.000915966  0.023571391
     0.198856069  0.004839312  0.334125638
     0.267548547  0.133769805  0.168259176
     0.333551958  0.067451248  0.023587490
     0.332797940  0.067539108  0.331138972
     0.400793537  0.000310691  0.167874585
     0.400291545  0.000868553  0.023537946
     0.396297821  0.000951624  0.333341524
     0.467603903  0.133788722  0.167898739
     0.533522941  0.067412750  0.023533808
     0.532486692  0.066499196  0.335988842
     0.600784112  0.000333700  0.167610487
     0.600286545  0.000865436  0.023513476
     0.600208832  0.996492670  0.329099715
     0.667552739  0.133776744  0.167418482
     0.733523127  0.067441266  0.023533704
     0.732687367  0.067102439  0.327863144
     0.800696898  0.000282749  0.167875371
     0.800300842  0.000905723  0.023509615
     0.803582314  0.007060533  0.332284453
     0.867473731  0.133766549  0.167671181
     0.933541737  0.067465552  0.023541009
     0.940036543  0.078545922  0.330458626
     0.000733588  0.200316175  0.167902551
     0.000309851  0.200918199  0.023571183
     0.010043311  0.213244029  0.331579207
     0.067538128  0.333784013  0.167829336
     0.133550045  0.267478914  0.023608459
     0.147572890  0.284312591  0.330674741
     0.200772742  0.200336291  0.168258121
     0.200313786  0.200922341  0.023637051
     0.207855825  0.210378671  0.329148885
     0.267563513  0.333796174  0.168172463
     0.333549669  0.267460591  0.023645401
     0.400808764  0.200341776  0.168131677
     0.400300302  0.200896493  0.023632109
     0.394745244  0.204467805  0.328535593
     0.467563378  0.333790223  0.168142212
     0.533536564  0.267435417  0.023598140
     0.530873967  0.276720511  0.329018007
     0.600827023  0.200328842  0.167613736
     0.600289568  0.200868571  0.023574278
     0.597234517  0.203633045  0.338744772
     0.667565890  0.333755002  0.167712272
     0.733524611  0.267428400  0.023559245
     0.732432169  0.274964405  0.328437230
     0.800753442  0.200336651  0.167332879
     0.800294615  0.200883873  0.023554783
     0.800685416  0.203694749  0.322732620
     0.867512395  0.333741468  0.167368935
     0.933526985  0.267453617  0.023562138
     0.935580963  0.273366450  0.332940518
     0.000722090  0.400294828  0.167610200
[...]
     0.802934131  0.806638445  0.338428166
     0.867455681  0.933718483  0.168148603
     0.933543505  0.867454631  0.023499035
[...]
   0.289E+01 -.168E+01 -.524E+03   -.316E+01 0.169E+01 0.524E+03   0.277E+00 -.105E-02 -.167E+00   -.376E-04 0.144E-03 -.165E-05
   -.564E+01 0.154E+01 0.220E+02   0.562E+01 -.154E+01 -.220E+02   0.746E-02 -.299E-01 -.229E-01   -.161E-04 0.399E-05 0.295E-03
   0.483E+00 0.104E+01 0.622E+03   -.476E+00 -.102E+01 -.622E+03   0.609E-02 0.118E-01 0.256E-03   -.201E-05 -.105E-05 0.762E-04
   0.179E+02 -.116E+02 -.518E+03   -.183E+02 0.118E+02 0.518E+03   0.405E+00 -.195E+00 0.123E+00   -.111E-03 0.108E-04 -.166E-04
   0.666E+01 0.776E+00 0.226E+02   -.664E+01 -.765E+00 -.226E+02   -.781E-02 0.110E-01 -.433E-03   -.413E-05 -.148E-04 0.285E-03
   0.618E+00 -.983E+00 0.623E+03   -.626E+00 0.962E+00 -.623E+03   -.879E-02 -.164E-01 0.798E-02   -.712E-06 -.170E-05 0.757E-04
   0.372E+02 -.260E+02 -.520E+03   -.375E+02 0.259E+02 0.520E+03   0.321E+00 0.879E-01 -.276E+00   0.997E-05 -.101E-03 -.155E-04
   0.417E+01 -.326E+01 0.217E+02   -.416E+01 0.327E+01 -.217E+02   -.168E-01 -.347E-01 -.174E-01   -.139E-04 -.192E-04 0.271E-03
   0.165E+01 0.581E+00 0.623E+03   -.164E+01 -.560E+00 -.623E+03   0.158E-02 0.113E-01 0.144E-02   -.516E-06 -.249E-05 0.749E-04
   0.475E+02 -.269E+02 -.483E+03   -.473E+02 0.270E+02 0.483E+03   -.215E+00 -.123E+00 -.297E+00   0.324E-04 -.169E-03 0.354E-04
   0.859E+01 0.577E+00 0.334E+02   -.855E+01 -.572E+00 -.334E+02   -.312E-01 0.128E-01 -.207E-01   0.111E-05 -.130E-04 0.283E-03
   0.766E+00 -.881E+00 0.624E+03   -.772E+00 0.860E+00 -.624E+03   -.849E-02 -.808E-02 0.116E-02   0.327E-06 -.151E-05 0.758E-04
   0.245E+02 -.330E+01 -.446E+03   -.249E+02 0.334E+01 0.445E+03   0.429E+00 -.365E-01 0.633E+00   -.198E-04 -.106E-03 0.257E-04
   0.109E+02 -.282E+01 0.331E+02   -.108E+02 0.284E+01 -.331E+02   -.548E-01 -.372E-01 -.372E-01   0.118E-04 -.183E-04 0.270E-03
   0.114E+01 0.987E+00 0.625E+03   -.113E+01 -.965E+00 -.625E+03   0.479E-02 0.163E-01 0.369E-02   0.173E-05 -.479E-06 0.761E-04
   0.112E+01 0.638E+02 -.456E+03   -.426E+00 -.678E+02 0.450E+03   -.687E+00 0.389E+01 0.672E+01   -.223E-04 -.494E-04 -.257E-04
   -.267E+01 0.953E+01 0.392E+02   0.268E+01 -.949E+01 -.392E+02   -.184E-02 -.183E-01 -.826E-01   0.234E-05 0.129E-04 0.284E-03
   -.717E+00 -.583E-01 0.625E+03   0.709E+00 0.370E-01 -.625E+03   -.638E-02 -.819E-02 -.121E-02   0.134E-05 0.157E-05 0.769E-04
   -.269E+02 0.300E+02 -.466E+03   0.280E+02 -.306E+02 0.466E+03   -.106E+01 0.656E+00 0.719E+00   0.702E-05 0.696E-04 -.908E-04
   0.160E+01 0.610E+01 0.507E+02   -.158E+01 -.608E+01 -.505E+02   -.250E-01 -.513E-01 -.145E+00   0.172E-04 0.683E-05 0.292E-03
   -.510E+00 0.175E+01 0.625E+03   0.517E+00 -.173E+01 -.625E+03   0.108E-01 0.120E-01 -.441E-02   0.130E-05 0.237E-05 0.784E-04
   -.483E+02 0.339E+02 -.506E+03   0.483E+02 -.346E+02 0.506E+03   -.204E-01 0.712E+00 -.168E+00   0.455E-04 0.104E-03 -.312E-04
   -.905E+01 0.113E+02 0.279E+02   0.901E+01 -.113E+02 -.278E+02   0.503E-01 0.533E-02 -.529E-01   0.231E-05 0.262E-04 0.281E-03
   -.172E+01 0.272E+00 0.624E+03   0.171E+01 -.291E+00 -.624E+03   -.403E-02 -.147E-01 0.722E-02   0.585E-06 0.329E-05 0.777E-04
   -.439E+02 0.129E+02 -.523E+03   0.434E+02 -.134E+02 0.523E+03   0.446E+00 0.436E+00 0.153E+00   0.116E-04 0.213E-03 0.451E-04
   -.128E+02 0.650E+01 0.370E+02   0.128E+02 -.649E+01 -.370E+02   0.581E-01 -.307E-01 -.604E-01   0.662E-07 0.194E-04 0.300E-03
   -.859E+00 0.173E+01 0.623E+03   0.867E+00 -.171E+01 -.623E+03   0.875E-02 0.113E-01 0.450E-03   -.934E-06 0.192E-05 0.783E-04
   -.153E+02 0.701E+01 -.518E+03   0.149E+02 -.708E+01 0.518E+03   0.417E+00 0.690E-01 0.344E+00   0.336E-04 0.179E-03 0.607E-04
   -.105E+02 0.368E+01 0.288E+02   0.105E+02 -.366E+01 -.288E+02   0.428E-01 -.236E-02 -.318E-01   -.125E-04 0.999E-05 0.306E-03
   -.180E+01 -.362E+00 0.624E+03   0.179E+01 0.342E+00 -.624E+03   -.475E-02 -.159E-01 0.568E-02   -.199E-05 0.116E-05 0.797E-04
   -.429E+02 0.173E+02 -.527E+03   0.434E+02 -.172E+02 0.528E+03   -.505E+00 -.139E+00 -.377E+00   -.112E-03 0.513E-04 0.454E-04
   -.104E+02 -.985E+00 0.292E+02   0.104E+02 0.996E+00 -.292E+02   0.498E-02 -.377E-01 -.316E-01   -.200E-04 0.304E-07 0.309E-03
   -.747E+00 0.117E+01 0.623E+03   0.754E+00 -.115E+01 -.623E+03   0.836E-02 0.870E-02 -.318E-03   -.405E-05 -.475E-06 0.781E-04
   -.338E+02 0.949E+00 -.505E+03   0.348E+02 -.131E+01 0.505E+03   -.103E+01 0.370E+00 0.387E+00   -.175E-03 -.601E-04 0.666E-05
   -.145E+01 -.468E+00 0.198E+02   0.146E+01 0.521E+00 -.198E+02   0.556E-02 -.306E-01 -.295E-01   -.254E-04 -.978E-05 0.279E-03
   -.680E+00 -.783E+00 0.622E+03   0.671E+00 0.763E+00 -.622E+03   -.540E-02 -.163E-01 0.278E-02   -.310E-05 -.112E-05 0.760E-04
   0.286E+02 -.115E+02 -.508E+03   -.313E+02 0.103E+02 0.507E+03   0.260E+01 0.123E+01 0.335E+00   -.213E-03 -.432E-04 0.982E-05
   -.576E+01 -.234E+01 0.178E+02   0.577E+01 0.237E+01 -.178E+02   -.229E-01 -.638E-01 -.644E-01   -.346E-04 -.107E-04 0.270E-03
   0.680E+00 0.561E+00 0.622E+03   -.673E+00 -.539E+00 -.622E+03   0.488E-02 0.105E-01 -.162E-03   -.245E-05 -.205E-05 0.737E-04
   0.907E+01 -.436E+01 0.244E+02   -.904E+01 0.441E+01 -.244E+02   -.188E-01 -.304E-01 -.311E-01   -.158E-05 -.229E-04 0.255E-03
   0.805E+00 -.143E+01 0.623E+03   -.810E+00 0.141E+01 -.623E+03   -.460E-02 -.137E-01 0.268E-03   -.111E-06 -.211E-05 0.736E-04
   0.121E+02 -.159E+02 -.476E+03   -.962E+01 0.148E+02 0.475E+03   -.244E+01 0.114E+01 0.595E+00   0.313E-04 -.158E-03 0.634E-04
   0.683E+01 -.911E+01 0.183E+02   -.683E+01 0.914E+01 -.182E+02   -.761E-02 -.588E-01 -.850E-01   -.283E-05 -.174E-04 0.235E-03
   0.178E+01 -.119E-01 0.624E+03   -.177E+01 0.340E-01 -.624E+03   0.481E-02 0.134E-01 0.297E-02   0.238E-05 -.162E-05 0.735E-04
   0.772E+02 -.266E+02 -.450E+03   -.775E+02 0.274E+02 0.450E+03   0.229E+00 -.763E+00 -.209E+00   0.708E-04 -.225E-03 0.103E-03
   0.128E+02 -.103E+01 0.445E+02   -.127E+02 0.107E+01 -.444E+02   -.621E-01 -.154E-01 -.108E+00   0.271E-04 -.905E-05 0.277E-03
   0.751E+00 -.137E+01 0.625E+03   -.759E+00 0.135E+01 -.625E+03   -.730E-02 -.103E-01 -.189E-02   0.369E-05 -.392E-06 0.758E-04
   0.556E+02 -.498E+02 -.490E+03   -.561E+02 0.548E+02 0.484E+03   0.503E+00 -.501E+01 0.616E+01   0.791E-04 -.914E-04 0.634E-04
   0.132E+02 -.125E+02 0.387E+02   -.132E+02 0.125E+02 -.386E+02   -.380E-01 -.938E-03 -.118E+00   0.381E-04 -.105E-04 0.265E-03
   0.932E+00 0.228E+00 0.625E+03   -.923E+00 -.207E+00 -.625E+03   0.772E-02 0.146E-01 -.877E-03   0.408E-05 0.263E-06 0.783E-04
   0.266E+02 -.255E+02 -.538E+03   -.301E+02 0.262E+02 0.545E+03   0.353E+01 -.787E+00 -.661E+01   0.221E-03 0.372E-04 0.241E-04
   -.805E+01 0.451E+01 0.531E+02   0.799E+01 -.447E+01 -.530E+02   0.624E-01 -.261E-01 -.153E+00   0.127E-04 0.129E-04 0.302E-03
   -.981E+00 -.722E+00 0.626E+03   0.969E+00 0.702E+00 -.626E+03   -.669E-02 -.112E-01 0.453E-03   0.242E-05 0.173E-05 0.800E-04
   -.955E+02 0.569E+02 -.520E+03   0.999E+02 -.609E+02 0.525E+03   -.433E+01 0.396E+01 -.491E+01   0.173E-03 0.105E-03 0.332E-04
   -.587E+01 -.102E+02 0.496E+02   0.582E+01 0.101E+02 -.494E+02   0.368E-01 0.242E-01 -.157E+00   0.181E-04 0.149E-05 0.308E-03
   -.716E+00 0.961E+00 0.625E+03   0.726E+00 -.940E+00 -.625E+03   0.129E-01 0.119E-01 -.139E-03   -.354E-06 0.840E-06 0.810E-04
   -.559E+02 0.383E+02 -.540E+03   0.561E+02 -.386E+02 0.540E+03   -.144E+00 0.277E+00 -.174E+00   0.370E-04 0.849E-04 0.434E-04
   -.675E+01 -.475E+01 0.355E+02   0.670E+01 0.475E+01 -.355E+02   0.579E-01 0.283E-01 -.672E-01   -.294E-05 -.530E-06 0.316E-03
[...]
   -.487E+01 0.680E+01 0.193E+02   0.483E+01 -.682E+01 -.193E+02   0.344E-01 0.424E-03 -.336E-01   0.599E-05 0.213E-04 0.276E-03
   0.397E+00 0.117E+01 0.622E+03   -.389E+00 -.115E+01 -.622E+03   0.708E-02 0.147E-01 0.267E-02   0.947E-06 0.128E-05 0.756E-04
   0.124E+02 -.175E+02 -.521E+03   -.130E+02 0.174E+02 0.521E+03   0.596E+00 0.635E-01 0.140E+00   0.113E-03 0.316E-04 -.354E-04
   -.224E+03 0.323E+02 -.525E+03   0.256E+03 -.278E+02 0.515E+03   -.323E+02 -.444E+01 0.965E+01   -.212E-03 -.108E-03 -.166E-04
   0.132E+03 0.568E+02 -.636E+03   -.161E+03 -.724E+02 0.636E+03   0.298E+02 0.156E+02 -.292E+00   0.242E-03 0.625E-04 -.339E-05
   0.282E+02 -.144E+03 -.619E+03   -.279E+02 0.176E+03 0.619E+03   -.317E+00 -.321E+02 -.399E+00   -.279E-03 -.141E-03 0.256E-04
   0.108E+02 -.625E+02 -.144E+04   -.869E+01 0.660E+02 0.149E+04   -.209E+01 -.348E+01 -.482E+02   -.806E-04 -.106E-03 -.426E-03
   0.635E+02 -.197E+02 -.142E+04   -.703E+02 0.165E+02 0.146E+04   0.680E+01 0.314E+01 -.482E+02   -.366E-04 -.236E-03 -.497E-03
   -.366E+02 0.112E+03 -.119E+04   0.352E+02 -.149E+03 0.122E+04   0.133E+01 0.367E+02 -.293E+02   0.210E-04 0.150E-03 -.240E-03
   0.275E+01 0.165E+02 -.142E+04   -.128E+01 -.202E+02 0.146E+04   -.150E+01 0.369E+01 -.470E+02   -.322E-03 0.172E-03 0.121E-03
   -.571E+02 0.657E+02 -.146E+04   0.635E+02 -.676E+02 0.151E+04   -.636E+01 0.183E+01 -.485E+02   -.326E-03 0.704E-05 -.499E-03
   -.345E+01 -.428E+02 -.192E+03   0.387E+01 0.477E+02 0.145E+03   -.435E+00 -.498E+01 0.471E+02   0.527E-04 -.325E-03 0.419E-03
   -.158E+02 0.961E+01 -.212E+03   0.890E+01 -.819E+01 0.164E+03   0.688E+01 -.142E+01 0.482E+02   0.193E-03 -.985E-05 0.220E-03
   -.899E+01 0.699E+02 -.168E+04   0.832E+01 -.672E+02 0.168E+04   0.687E+00 -.278E+01 0.432E+01   -.165E-03 -.131E-03 -.481E-03
   -.770E+01 -.106E+02 0.854E+02   0.453E-12 -.853E-13 0.682E-11   0.770E+01 0.106E+02 -.854E+02   -.678E-04 -.773E-03 0.166E-01

 POSITION                                       TOTAL-FORCE (eV/Angst)
      0.00702      0.00304      4.67761         0.015658      0.024505     -0.001090
     -0.00179      0.00975      0.65459        -0.013562     -0.036922      0.000525
     -0.01570      0.10310      9.22073         0.002488      0.004367     -0.000662
      0.01146      1.42495      4.67611        -0.010559     -0.025464     -0.000340
      1.23566      0.71812      0.65601         0.013206      0.033819     -0.005021
      1.21998      0.80283      9.20131        -0.021864      0.015837     -0.022605
      2.47970      0.00196      4.67688         0.012296      0.022470      0.000185
      2.47044      0.00855      0.65536        -0.016800     -0.037487      0.001174
      2.42749      0.04889      9.29421         0.029840      0.012848      0.001194
      2.48400      1.42379      4.67813        -0.010289     -0.020361      0.003812
      3.70787      0.71672      0.65581         0.012250      0.031852     -0.003812
      3.69969      0.71909      9.20700        -0.017824     -0.006681      0.005429
      4.95211      0.00089      4.66743         0.015970      0.018005     -0.001734
      4.94247      0.00684      0.65443        -0.015406     -0.028175     -0.002288
      4.89441      0.01040      9.26496        -0.010386      0.002033      0.001701
      4.95667      1.42278      4.66811        -0.014879     -0.024673      0.001463
      6.17985      0.71511      0.65431         0.014038      0.038635     -0.000826
      6.17081      0.70890      9.35987         0.009550     -0.024738      0.012747
      7.42395     -0.00007      4.66009         0.009632      0.024204     -0.002741
      7.41453      0.00560      0.65375        -0.014234     -0.029564     -0.001813
      1.28615     10.61810      9.16479         0.001377      0.008677      0.007997
      7.42822      1.42145      4.65475        -0.003432     -0.025099      0.005732
      8.65179      0.71421      0.65431         0.018489      0.032134     -0.004976
      8.63951      0.71202      9.12061        -0.004043     -0.039173      0.008803
      9.89529     -0.00181      4.66746         0.012018      0.027265      0.000264
      9.88656      0.00483      0.65364        -0.013850     -0.034676      0.002034
      9.88885      0.06950      9.22481        -0.008682      0.010285      0.002639
      9.89941      1.42014      4.66178        -0.012075     -0.022031     -0.000030
     11.12397      0.71326      0.65451         0.016269      0.033437     -0.003268
     11.13282      0.82877      9.17930         0.009312     -0.000063      0.014805
     -1.22341      2.13449      4.66821         0.008925      0.021874     -0.000606
     -1.23235      2.14091      0.65535        -0.015534     -0.035835      0.001886
     -1.19441      2.27390      9.21408         0.001445     -0.015090     -0.006513
     -1.21885      3.55627      4.66618        -0.009955     -0.026932      0.001988
      0.00504      2.84935      0.65639         0.015873      0.030295     -0.004765
      0.07176      3.02738      9.19479        -0.016304      0.004821      0.009699
      1.24905      2.13350      4.67810         0.010692      0.022098     -0.000109
      1.23978      2.13974      0.65718        -0.014522     -0.036718     -0.000520
      1.27354      2.24076      9.15847        -0.006281     -0.008521      0.003183
      1.25349      3.55519      4.67572        -0.006777     -0.025524      0.003384
      2.47725      2.84795      0.65742         0.011607      0.032223     -0.003686
      3.72157      2.13235      4.67458         0.011095      0.023270      0.000842
      3.71187      2.13826      0.65705        -0.009006     -0.032702     -0.001435
      3.62456      2.17756      9.12929         0.027030     -0.011672      0.002196
      3.72563      3.55392      4.67487        -0.015579     -0.024401      0.003947
      4.94935      2.84647      0.65610         0.014393      0.035548     -0.001410
      4.86002      2.94592      9.14692         0.014961      0.014825     -0.011572
      6.19398      2.13101      4.66018         0.011899      0.019279     -0.000546
      6.18402      2.13676      0.65544        -0.015206     -0.031852     -0.001536
      6.12571      2.17276      9.42943        -0.000307     -0.004651     -0.005490
      6.19798      3.55234      4.66292        -0.012025     -0.024180      0.000362
      7.42135      2.84519      0.65502         0.016874      0.036017     -0.002937
      7.36319      2.92336      9.13303        -0.007218      0.005715     -0.012794
      8.66513      2.12988      4.65237         0.009507      0.017573      0.002514
      8.65609      2.13572      0.65490        -0.019048     -0.030710     -0.000660
      8.63635      2.16713      8.98880         0.045699      0.006876      0.004985
      8.66951      3.55099      4.65338        -0.007281     -0.027018      0.007003
      9.89333      2.84426      0.65510         0.022629      0.032512     -0.004388
      9.87946      2.90548      9.26457        -0.000794      0.008625     -0.008321
     -2.45395      4.26538      4.66008         0.011077      0.022446     -0.001998
[...]
      4.96433      8.58945      9.40735         0.014317      0.005560      0.000184
      4.97735      9.94412      4.67505        -0.006739     -0.020365      0.002392
      6.20193      9.23764      0.65335         0.015206      0.036328     -0.003665
      6.18210      9.32572      9.31242         0.001145      0.003661      0.003323
      0.76151      5.58693      9.10208        -0.010267      0.002236      0.000756
      4.93682      7.23042      9.43039         0.009164      0.000803     -0.007382
      2.49144      2.86850      9.15838        -0.024736      0.018547     -0.000390
     -1.74664      9.02935     10.95151         0.008490     -0.004285      0.008294
      6.54531      4.57286     10.82819        -0.005192      0.012153     -0.016631
      2.47850      7.60850     10.51594         0.004515      0.033691     -0.032598
      6.17711      1.46145     10.68189        -0.024101      0.017066     -0.000795
     -1.18319      5.64683     11.09381         0.002565     -0.000213     -0.004949
      7.88370      2.76570      7.80884        -0.008337     -0.022472      0.004177
     -0.21413      7.59139      8.02837         0.018629     -0.001084     -0.001825
      2.90085      5.23424     10.78785         0.016060     -0.004201     -0.014615
    total drift:                               -0.002658      0.005343      0.027897

  FREE ENERGIE OF THE ION-ELECTRON SYSTEM (eV)
  free  energy   TOTEN  =     -1364.93268421 eV

  energy  without entropy=    -1364.91119351  energy(sigma->0) =    -1364.92193886

 d Force = 0.4811097E-05[ 0.381E-07, 0.958E-05]  d Energy = 0.5987371E-05-0.118E-05
 d Force =-0.3787117E-01[-0.378E-01,-0.379E-01]  d Ewald  =-0.3787107E-01-0.103E-06

 stress matrix after NEB project (eV)
    -11.05307     -0.00130     -0.02411
     -0.00130    -12.92351     -0.17261
     -0.02411     -0.17261    -23.95630
  FORCES: max atom, RMS     0.047096    0.013487
  FORCE total and by dimension    0.166823    0.045699
  Stress total and by dimension   29.379457   23.956300

 reached required accuracy - stopping structural energy minimisation